Optimal - objective value -6.00000000
      0 x_0                      0                       0
      1 x_1                      0                      -1
      2 x_2                      0                       0
      3 x_3                      1                       0
      4 x_4                      1                       0
      5 x_5                      0                      -1
      6 x_6                      1                      -1
      7 x_7                      0                       0
      8 x_8                      1                      -1
      9 x_9                      0                       0
     10 x_10                     1                       0
     11 x_11                     0                       0
     12 x_12                     0                       0
     13 x_13                     0                      -1
     14 x_14                     0                       0
     15 x_15                     0                       0
     16 x_16                     1                      -1
     17 x_17                     0                      -1
     18 x_18                     0                       0
     19 x_19                     0                       0
